c --- [ banner ] -------------------------------------------------------------
c 
c CaDiCaL Radically Simplified CDCL SAT Solver
c Copyright (c) 2016-2021 A. Biere, M. Fleury, N. Froleyks
c 
c Version 1.5.2 a5f15211db36c3956764e18194dd5bd63bf3b5e6
c g++ (GCC) 9.3.0 -Wall -Wextra -O3 -DNDEBUG
c Fri Oct 21 01:27:37 EDT 2022 Linux gra-login3 3.10.0-1160.66.1.el7.x86_64 x86_64
c 
c --- [ limit ] --------------------------------------------------------------
c 
c setting conflict limit to 200000 conflicts (due to '200000')
c 
c --- [ parsing input ] ------------------------------------------------------
c 
c reading DIMACS file from '33.cubes1163.adj'
c opening file to read '33.cubes1163.adj'
c found 'p cnf 6160 1595471' header
c parsed 1595471 clauses in 19.27 seconds process time
c closing file '33.cubes1163.adj'
c after reading 1457566746 bytes 1390.0 MB
c 
c --- [ options ] ------------------------------------------------------------
c 
c all options are set to their default value
c 
c --- [ solving ] ------------------------------------------------------------
c 
c time measured in process time since initialization
c 
c  seconds    reductions  redundant   irredundant
c          MB     restarts       trail       variables
c            level   conflicts       glue         remaining
c 
c * 19.27 1369  0 0   0    0    0  0% 0 1595422 2442 40%
c { 20.56 1435  0 0   0    0    0  0% 0 1595422 2442 40%
c i 20.72 1439 832 0   0    9    8 34% 1 1595422 2429 39%
c i 20.92 1446 791 0   0   10    8 33% 1 1595422 2421 39%
c i 22.30 1485 512 0   3   28   23 33% 12 1595422 2389 39%
c i 22.60 1492 452 0   5   32   26 33% 12 1595422 2388 39%
c i 22.63 1492 426 0   5   34   27 33% 13 1595422 2387 39%
c i 22.70 1493 403 0   6   36   28 32% 12 1595422 2386 39%
c i 22.86 1494 361 0   6   41   32 32% 11 1595422 2385 39%
c i 23.96 1501 220 0  13   77   65 30% 16 1595422 2384 39%
c i 23.97 1501 217 0  13   78   65 30% 16 1595422 2383 39%
c i 23.97 1501 214 0  13   79   65 29% 16 1595422 2362 38%
c i 23.97 1501 211 0  14   80   65 29% 16 1595422 2361 38%
c i 23.97 1501 208 0  14   81   65 29% 16 1595422 2360 38%
c i 23.98 1501 206 0  14   82   65 29% 15 1595422 2359 38%
c i 23.98 1501 203 0  15   83   65 29% 15 1595422 2358 38%
c i 24.08 1503 199 0  16   86   67 29% 16 1595422 2357 38%
c i 24.21 1504 192 0  19   96   75 29% 21 1595422 2356 38%
c i 24.23 1504 188 0  19  101   77 29% 23 1595422 2355 38%
c i 24.55 1508 168 0  24  118   93 29% 24 1595422 2354 38%
c 
c  seconds     reductions  redundant    irredundant
c          MB      restarts       trail        variables
c             level   conflicts       glue          remaining
c 
c i 24.59 1508 164 0  25  122   96 29% 24 1595422 2353 38%
c i 25.24 1512 136 0  32  163  128 28% 22 1595422 2352 38%
c i 25.52 1513 121 0  32  204  144 26% 21 1595422 2351 38%
c i 25.55 1513 121 0  32  208  147 26% 21 1595422 2350 38%
c i 25.65 1513 120 0  33  215  151 26% 22 1595422 2349 38%
c i 25.65 1513 119 0  33  216  151 26% 22 1595422 2348 38%
c i 25.68 1513 119 0  34  220  154 26% 21 1595422 2309 37%
c i 25.83 1513 124 0  36  240  173 26% 22 1595422 2288 37%
c i 25.98 1513 120 0  38  250  181 26% 21 1595422 2287 37%
c i 26.33 1514 109 0  38  279  207 26% 20 1595422 2286 37%
c i 26.37 1514 107 0  38  284  211 27% 20 1595422 2285 37%
c - 30.39 1457 103 1  38  300  224 27% 20 436471 2285 37%
c i 30.58 1457 101 1  38  307  230 27% 19 436471 2284 37%
c i 30.60 1457 101 1  38  308  230 27% 19 436471 2283 37%
c i 30.60 1457 101 1  38  309  230 27% 19 436471 2282 37%
c i 30.60 1457 100 1  38  310  230 27% 19 436471 2281 37%
c i 30.66 1457 100 1  38  313  232 27% 19 436471 2280 37%
c i 30.66 1457 100 1  38  316  234 27% 19 436471 2279 37%
c i 30.69 1457 100 1  38  324  241 27% 19 436471 2278 37%
c i 30.81 1397 101 1  38  335  247 27% 19 436471 2277 37%
c 
c  seconds     reductions  redundant   irredundant
c          MB      restarts       trail       variables
c             level   conflicts       glue         remaining
c 
c i 30.88 1397 101 1  38  349  253 26% 19 436471 2271 37%
c i 30.98 1398 101 1  39  358  261 27% 20 436471 2270 37%
c i 31.66 1398 99 1  56  423  318 27% 22 436471 2269 37%
c i 31.69 1398 99 1  57  427  321 27% 22 436471 2268 37%
c i 31.72 1398 98 1  58  431  323 27% 22 436471 2267 37%
c i 32.47 1398 93 1  63  497  375 26% 21 436471 2266 37%
c i 32.54 1398 92 1  63  506  383 26% 21 436471 2265 37%
c i 32.64 1398 91 1  66  517  391 27% 21 436471 2264 37%
c i 32.76 1398 92 1  68  528  398 26% 21 436471 2260 37%
c i 33.08 1399 94 1  74  559  425 26% 22 436471 2259 37%
c i 33.11 1399 95 1  75  564  425 26% 22 436471 2254 37%
c i 33.31 1399 94 1  77  574  433 26% 22 436471 2253 37%
c i 33.33 1399 94 1  77  575  433 26% 22 436471 2252 37%
c i 33.33 1399 94 1  77  576  433 26% 22 436471 2251 37%
c i 33.33 1399 94 1  77  577  433 26% 22 436471 2250 37%
c i 33.33 1399 94 1  77  578  433 26% 22 436471 2249 37%
c i 33.33 1399 93 1  77  579  433 26% 22 436471 2248 36%
c i 33.33 1399 93 1  77  580  433 26% 22 436471 2247 36%
c i 33.62 1399 86 1  77  647  474 26% 20 436471 2246 36%
c i 33.90 1399 72 1  77  820  552 26% 18 436471 2245 36%
c 
c  seconds    reductions  redundant   irredundant
c          MB     restarts       trail       variables
c            level   conflicts       glue         remaining
c 
c i 34.08 1399 72 1  77  827  557 26% 18 436471 2244 36%
c i 34.09 1399 72 1  77  829  558 26% 18 436471 2243 36%
c i 34.11 1399 72 1  77  830  558 26% 18 436471 2242 36%
c i 34.52 1400 72 1  85  884  597 26% 19 436471 2241 36%
c i 34.98 1400 71 1  90  942  646 26% 19 436471 2240 36%
c i 34.98 1400 71 1  90  945  648 26% 19 436471 2239 36%
c } 35.57 1400 70 1  95 1003  695 26% 19 436471 2239 36%
c [ 35.57 1400  0 1  95 1003  695  0% 0 436471 2239 36%
c O 35.58 1400  4 1  95 1004  696 16% 3 436471 2239 36%
c i 35.74 1400  9 1  95 1010  701 31% 7 436471 2238 36%
c i 35.81 1400 14 1  95 1021  711 31% 12 436471 2237 36%
c i 35.91 1400 20 1  95 1033  722 31% 15 436471 2236 36%
c i 35.91 1400 20 1  95 1036  724 31% 16 436471 2235 36%
c i 35.92 1400 19 1  95 1037  724 31% 15 436471 2234 36%
c i 35.93 1400 21 1  95 1044  729 31% 16 436471 2233 36%
c i 35.96 1400 21 1  95 1048  732 31% 16 436471 2232 36%
c i 36.17 1400 27 1  95 1134  805 32% 21 436471 2231 36%
c i 36.17 1400 27 1  95 1136  806 32% 21 436471 2230 36%
c i 36.20 1400 26 1  95 1177  834 32% 21 436471 2229 36%
c i 36.20 1400 26 1  95 1187  842 32% 21 436471 2228 36%
c 
c  seconds    reductions  redundant   irredundant
c          MB     restarts       trail       variables
c            level   conflicts       glue         remaining
c 
c i 36.21 1400 26 1  95 1203  853 32% 21 436471 2227 36%
c i 36.23 1400 25 1  95 1243  883 32% 20 436471 2226 36%
c - 37.11 1564 27 2  95 1284  803 31% 22 436294 2226 36%
c i 37.51 1564 28 2  95 1365  845 31% 23 436294 2225 36%
c i 37.51 1564 28 2  95 1366  845 31% 23 436294 2224 36%
c i 37.74 1564 26 2  95 1526  956 31% 22 436294 2223 36%
c i 37.78 1564 26 2  95 1545  974 31% 22 436294 2222 36%
c i 37.79 1564 26 2  95 1554  980 31% 21 436294 2221 36%
c i 37.81 1564 26 2  95 1578  998 31% 21 436294 2220 36%
c i 37.88 1564 26 2  95 1621 1028 31% 21 436294 2219 36%
c - 39.23 1562 22 3  96 2759 1456 31% 19 436273 2219 36%
c ] 39.87 1562 22 3  96 3003 1588 54% 19 436273 2219 36%
c { 39.87 1562 70 3  96 3003 1588 72% 19 436273 2219 36%
c F 39.89 1562 70 3  96 3005 1590 72% 19 436273 2219 36%
c i 40.07 1562 68 3  96 3027 1608 72% 19 436273 2218 36%
c i 40.08 1562 68 3  96 3030 1610 71% 19 436273 2217 36%
c i 40.29 1562 68 3  98 3061 1634 71% 19 436273 2216 36%
c i 41.19 1562 61 3  98 3220 1760 67% 18 436273 2215 36%
c i 41.72 1562 59 3 102 3290 1816 66% 18 436273 2214 36%
c i 41.90 1562 59 3 103 3325 1841 65% 18 436273 2213 36%
c 
c  seconds    reductions  redundant   irredundant
c          MB     restarts       trail       variables
c            level   conflicts       glue         remaining
c 
c i 41.97 1562 59 3 103 3339 1854 65% 18 436273 2212 36%
c i 41.98 1562 59 3 103 3344 1858 64% 18 436273 2211 36%
c i 42.08 1562 58 3 106 3359 1871 64% 18 436273 2210 36%
c i 42.68 1562 58 3 122 3426 1927 63% 18 436273 2209 36%
c i 42.92 1562 58 3 126 3440 1940 63% 18 436273 2208 36%
c i 44.67 1562 56 3 168 3732 2191 59% 20 436273 2207 36%
c i 44.75 1562 54 3 168 3808 2247 59% 19 436273 2206 36%
c i 45.12 1562 50 3 181 4131 2485 57% 19 436273 2205 36%
c i 45.23 1562 49 3 190 4242 2580 56% 19 436273 2204 36%
c i 45.27 1562 49 3 198 4277 2609 56% 19 436273 2203 36%
c i 45.42 1562 48 3 215 4412 2728 56% 19 436273 2202 36%
c - 48.17 1557 49 4 275 4726 2174 54% 20 436222 2202 36%
c i 48.69 1557 49 4 284 4797 2228 54% 20 436222 2201 36%
c p 62.36 1557 50 4 322 5000 6577 53% 21 436191 2140 35%
c d 62.96 1557 50 4 322 5000 6305 53% 21 436051 2138 35%
c # 67.67 1557 49 4 475 6008 7132 50% 22 436051 2138 35%
c } 70.24 1557 44 4 493 7005 7925 49% 21 436051 2138 35%
c [ 70.24 1557 22 4 493 7005 7925 54% 19 436051 2138 35%
c - 70.84 1401 22 5 494 7185 3179 51% 19 436051 2138 35%
c I 74.35 1401 24 5 495 10009 5132 48% 20 436051 2138 35%
c 
c  seconds    reductions   redundant   irredundant
c          MB     restarts        trail       variables
c            level    conflicts       glue         remaining
c 
c - 75.07 1403 25 6 495 10136 3629 48% 20 436051 2138 35%
c - 78.36 1403 26 7 498 13579 4001 48% 22 436051 2138 35%
c 2 79.63 1403 26 7 498 15000 5787 48% 22 436051 2138 35%
c p 82.59 1403 26 7 498 15000 9569 48% 22 436051 2137 35%
c ] 82.79 1403 26 7 498 15006 9575 48% 22 436051 2137 35%
c { 82.79 1403 44 7 498 15006 9575 49% 21 436051 2137 35%
c B 82.85 1403 44 7 498 15012 9578 49% 21 436051 2137 35%
c - 85.55 1403 35 8 519 17517 4901 47% 19 436048 2137 35%
c s 86.45 1403 32 8 519 18707 5534 47% 18 433911 2137 35%
c v 94.95 1403 32 8 519 18707 5534 47% 18 433898 2137 35%
c t 95.12 1403 32 8 519 18707 5515 47% 18 433884 2137 35%
c e 96.44 1406 32 8 519 18707 5166 47% 18 431137 736 12%
c s 96.60 1406 32 8 519 18707 5166 47% 18 430886 736 12%
c W 99.81 1347 29 8 523 21019 6450 75% 17 430886 736 12%
c - 100.67 1347 28 9 526 21944 4896 75% 17 430886 736 12%
c - 107.36 1349 25 10 665 26847 5682 75% 16 430886 736 12%
c F 113.52 1349 26 10 832 28022 6608 74% 17 430886 736 12%
c p 121.44 1349 26 10 967 30002 10197 74% 17 430886 735 12%
c } 123.38 1349 25 10 984 31006 10823 74% 16 430886 735 12%
c [ 123.38 1349 26 10 984 31006 10823 145% 22 430886 735 12%
c 
c  seconds     reductions    redundant    irredundant
c           MB      restarts        trail        variables
c             level     conflicts        glue        remaining
c 
c - 124.93 1349 25 11 984 32245 6656 136% 21 430883 735 12%
c ] 126.46 1349 25 11 985 33854 7909 127% 21 430883 735 12%
c 1 126.46 1349 25 11 985 33854 7909 127% 21 430883 735 12%
c 
c --- [ writing output ] -----------------------------------------------------
c 
c writing simplified CNF to DIMACS file 'simp/33.cubes1163.adj.simp1'
c * 126.46 1349 25 11 985 33854 7909 127% 21 430883 735 12%
c opening file to write 'simp/33.cubes1163.adj.simp1'
c writing 'p cnf 6160 430883' header
c closing file 'simp/33.cubes1163.adj.simp1'
c after writing 168023691 bytes 160.2 MB
c wrote 430883 clauses in 1.22 seconds process time
c 
c --- [ writing extension ] --------------------------------------------------
c 
c writing extension stack to 'simp/33.cubes1163.adj.ext1'
c opening file to write 'simp/33.cubes1163.adj.ext1'
c closing file 'simp/33.cubes1163.adj.ext1'
c after writing 91442 bytes 0.1 MB
c wrote 4089 witnesses in 0.00 seconds process time
c 
c --- [ result ] -------------------------------------------------------------
c 
s SATISFIABLE
c 
c --- [ run-time profiling ] -------------------------------------------------
c 
c process time taken by individual solving procedures
c (percentage relative to process time for solving)
c 
c        77.31   72.12% search
c        59.03   55.07% unstable
c        29.89   27.88% simplify
c        19.27   17.98% parse
c        16.92   15.78% probe
c        16.85   15.72% stable
c         8.62    8.04% vivify
c         2.43    2.27% elim
c         1.29    1.20% lucky
c         0.32    0.30% subsume
c         0.17    0.16% ternary
c         0.14    0.13% walk
c   =================================
c       107.19   83.95% solve
c 
c last line shows process time for solving
c (percentage relative to total process time)
c 
c --- [ statistics ] ---------------------------------------------------------
c 
c chronological:              6695        19.78 %  of conflicts
c conflicts:                 33854       315.82    per second
c decisions:                 89540       835.32    per second
c eliminated:                 1401        22.74 %  of all variables
c fixed:                       864        14.03 %  of all variables
c learned:                   33094        97.76 %  per conflict
c learned_lits:            5183187       100.00 %  learned literals
c minimized:                     0         0.00 %  learned literals
c shrunken:                3178011        61.31 %  learned literals
c minishrunken:             443850         8.56 %  learned literals
c propagations:            4013688         0.04 M  per second
c reduced:                   15515        45.83 %  per conflict
c rephased:                      7      4836.29    interval
c restarts:                    985        34.37    interval
c stabilizing:                   3        37.95 %  of conflicts
c substituted:                  16         0.26 %  of all variables
c subsumed:                  11799         0.33 %  of all clauses
c strengthened:               9084         0.25 %  of all clauses
c ternary:                    2087         0.60 %  of resolved
c vivified:                     19         0.00 %  of all clauses
c walked:                        1     33854.00    interval
c weakened:                   3225         2.97    average size
c 
c seconds are measured in process time for solving
c 
c --- [ resources ] ----------------------------------------------------------
c 
c total process time since initialization:       127.68    seconds
c total real time since initialization:          129.26    seconds
c maximum resident set size of process:         1725.11    MB
c 
c --- [ shutting down ] ------------------------------------------------------
c 
c exit 10
WARNING! DIMACS header mismatch: wrong number of variables.
============================[ Problem Statistics ]=============================
|                                                                             |
|  Number of variables:          3016                                         |
|  Number of clauses:          430883                                         |
|  Parse time:                   2.20 s                                       |
|  Simplification time:          0.06 s                                       |
|                                                                             |
============================[ Search Statistics ]====================================================
| Conflicts |          ORIGINAL         |          LEARNT          | Num Sols |      SUBGRAPHS      |
|           |    Vars  Clauses Literals |    Limit  Clauses Lit/Cl |          | Canonical Noncanon. |
=====================================================================================================
|       134 |    2922   430917 37295414 |     2000      134     44 |        0 |        45        34 |
|       415 |    2922   431048 37296781 |     2000      415     21 |        0 |       116       165 |
|      1203 |    2922   431611 37304847 |     2000     1203     17 |        0 |       371       728 |
|      1914 |    2922   431985 37309312 |     2000     1914     15 |        0 |       572      1102 |
|      2997 |    2922   432562 37317300 |     3600     1997     11 |        0 |       915      1679 |
|      5516 |    2922   434322 37340593 |     5003     2719     11 |        0 |      1500      3439 |
|      9928 |    2922   437595 37381254 |     6306     4634     11 |        0 |      2002      6712 |
|     14457 |    2922   440416 37416778 |     7552     6009     14 |        0 |      2759      9533 |
|     24111 |    2922   447508 37495484 |     9993     7504      9 |        0 |      3733     16625 |
=====================================================================================================
Number of solutions   : 0
Canonical subgraphs   : 4401           (155 /sec)
          order  3    : 1              (166667 /sec)
          order  4    : 1              (500000 /sec)
          order  5    : 1              (250000 /sec)
          order  6    : 1              (58824 /sec)
          order  7    : 2              (9852 /sec)
          order  8    : 6              (2608 /sec)
          order  9    : 16             (616 /sec)
          order 10    : 76             (232 /sec)
          order 11    : 476            (171 /sec)
          order 12    : 3495           (153 /sec)
          order 13    : 318            (147 /sec)
          order 14    : 8              (64 /sec)
          order 15    : 0              (-nan /sec)
          order 16    : 0              (-nan /sec)
          order 17    : 0              (-nan /sec)
          order 18    : 0              (-nan /sec)
          order 19    : 0              (-nan /sec)
          order 20    : 0              (-nan /sec)
          order 21    : 0              (-nan /sec)
          order 22    : 0              (-nan /sec)
Noncanonical subgraphs: 22980          (896 /sec)
          order  3    : 0              (-nan /sec)
          order  4    : 0              (-nan /sec)
          order  5    : 0              (-nan /sec)
          order  6    : 0              (-nan /sec)
          order  7    : 0              (-nan /sec)
          order  8    : 0              (-nan /sec)
          order  9    : 0              (-nan /sec)
          order 10    : 0              (-nan /sec)
          order 11    : 0              (-nan /sec)
          order 12    : 0              (-nan /sec)
          order 13    : 21792          (891 /sec)
          order 14    : 1164           (1026 /sec)
          order 15    : 24             (698 /sec)
          order 16    : 0              (-nan /sec)
          order 17    : 0              (-nan /sec)
          order 18    : 0              (-nan /sec)
          order 19    : 0              (-nan /sec)
          order 20    : 0              (-nan /sec)
          order 21    : 0              (-nan /sec)
Canonicity checking   : 28.3411 s
Noncanonicity checking: 25.6404 s
Total canonicity time : 53.9815 s
database reductions   : 7
restarts              : 123
conflicts             : 32775          (377 /sec)
decisions             : 63293          (0.00 % random) (728 /sec)
propagations          : 1601333        (18417 /sec)
conflict literals     : 398748         (58.82 % deleted)
actual reward         : 0.089760
Memory used           : 242.00 MB
CPU time              : 86.9492 s

UNSATISFIABLE
